
-2.8
-2.8
-2.8
-2.7
-2.6
-2.6
-2.6
-2.6
-2.6
-2.6
-2.6
-2.6
-2.6
-2.6
-2.6
-2.6
-2.6
-2.6
-2.6
-2.6
-2.6
-2.75
-2.75
-2.7
-2.7
-2.7
-2.7
-2.7
-2.65
-2.65
-2.6
-2.6
-2.6
-2.6
-2.55
-2.55
-2.55
-2.55
-2.55
-2.55
-2.55
-3.05
-2.9
-2.85
-2.85
-2.85
-2.8
-2.75
-2.7
-2.65
-2.65
-2.65
-2.65
-2.6
-2.6
-2.6
-2.6
-2.6
-2.6
-2.6
-2.55